 ******* PRINTING MODEL DATA **************


------------------------------------------------------ 
Number of nodes:                                 28
Number of elements:                              18
Number of nodes per element:                     4
Number of degrees of freedom per node:           2
Number of degrees of freedom per element:        8


------------------------------------------------------ 
Node        X        Y
 1,      0000.00,      -000.50
 2,      0000.00,      -000.17
 3,      0000.00,      0000.17
 4,      0000.00,      0000.50
 5,      0000.33,      -000.42
 6,      0000.33,      -000.11
 7,      0000.33,      0000.19
 8,      0000.33,      0000.50
 9,      0000.67,      -000.33
 10,      0000.67,      -000.06
 11,      0000.67,      0000.22
 12,      0000.67,      0000.50
 13,      0001.00,      -000.25
 14,      0001.00,      0000.00
 15,      0001.00,      0000.25
 16,      0001.00,      0000.50
 17,      0001.33,      -000.17
 18,      0001.33,      0000.06
 19,      0001.33,      0000.28
 20,      0001.33,      0000.50
 21,      0001.67,      -000.08
 22,      0001.67,      0000.11
 23,      0001.67,      0000.31
 24,      0001.67,      0000.50
 25,      0002.00,      0000.00
 26,      0002.00,      0000.17
 27,      0002.00,      0000.33
 28,      0002.00,      0000.50

------------------------------------------------------ 
Element      Node_1      Node_2     Node_3      Node_4
    1,         1,          5,         6,       2
    2,         2,          6,         7,       3
    3,         3,          7,         8,       4
    4,         5,          9,         10,       6
    5,         6,          10,         11,       7
    6,         7,          11,         12,       8
    7,         9,          13,         14,       10
    8,         10,          14,         15,       11
    9,         11,          15,         16,       12
    10,         13,          17,         18,       14
    11,         14,          18,         19,       15
    12,         15,          19,         20,       16
    13,         17,          21,         22,       18
    14,         18,          22,         23,       19
    15,         19,          23,         24,       20
    16,         21,          25,         26,       22
    17,         22,          26,         27,       23
    18,         23,          27,         28,       24

------------------------------------------------------ 
-------------Nodal freedom---------------------------- 
Node      disp_x      disp_y
  1,         0,         0
  2,         0,         0
  3,         0,         0
  4,         0,         0
  5,         1,         2
  6,         3,         4
  7,         5,         6
  8,         7,         8
  9,         9,         10
  10,         11,         12
  11,         13,         14
  12,         15,         16
  13,         17,         18
  14,         19,         20
  15,         21,         22
  16,         23,         24
  17,         25,         26
  18,         27,         28
  19,         29,         30
  20,         31,         32
  21,         33,         34
  22,         35,         36
  23,         37,         38
  24,         39,         40
  25,         41,         42
  26,         43,         44
  27,         45,         46
  28,         47,         48

------------------------------------------------------ 
-----------------Applied Nodal Loads------------------- 
Node        load_X         load_Y
  1,        0000.00,        0000.00
  2,        0000.00,        0000.00
  3,        0000.00,        0000.00
  4,        0000.00,        0000.00
  5,        0000.00,        0000.00
  6,        0000.00,        0000.00
  7,        0000.00,        0000.00
  8,        0000.00,        -006.67
  9,        0000.00,        0000.00
  10,        0000.00,        0000.00
  11,        0000.00,        0000.00
  12,        0000.00,        -006.67
  13,        0000.00,        0000.00
  14,        0000.00,        0000.00
  15,        0000.00,        0000.00
  16,        0000.00,        -006.67
  17,        0000.00,        0000.00
  18,        0000.00,        0000.00
  19,        0000.00,        0000.00
  20,        0000.00,        -006.67
  21,        0000.00,        0000.00
  22,        0000.00,        0000.00
  23,        0000.00,        0000.00
  24,        0000.00,        -006.67
  25,        0000.00,        0000.00
  26,        0000.00,        0000.00
  27,        0000.00,        0000.00
  28,        0000.00,        -003.33
------------------------------------------------------ 

Total number of active degrees of freedom, n = 48

-------------------------------------------------------- 
 


 ******* PRINTING ANALYSIS RESULTS **************


------------------------------------------------------ 
Global force vector  F 
   0
   0
   0
   0
   0
   0
   0
   -6.66667
   0
   0
   0
   0
   0
   0
   0
   -6.66667
   0
   0
   0
   0
   0
   0
   0
   -6.66667
   0
   0
   0
   0
   0
   0
   0
   -6.66667
   0
   0
   0
   0
   0
   0
   0
   -6.66667
   0
   0
   0
   0
   0
   0
   0
   -3.33333

------------------------------------------------------ 
Displacement solution vector:  delta 
 -0.00189
 -0.00201
 -0.00065
 -0.00168
  0.00063
 -0.00174
  0.00255
 -0.00235
 -0.00320
 -0.00512
 -0.00089
 -0.00497
  0.00154
 -0.00514
  0.00441
 -0.00557
 -0.00374
 -0.00954
 -0.00068
 -0.00947
  0.00239
 -0.00962
  0.00576
 -0.00994
 -0.00349
 -0.01483
 -0.00014
 -0.01481
  0.00314
 -0.01493
  0.00663
 -0.01515
 -0.00259
 -0.02058
  0.00063
 -0.02059
  0.00380
 -0.02068
  0.00706
 -0.02082
 -0.00128
 -0.02636
  0.00155
 -0.02637
  0.00436
 -0.02644
  0.00721
 -0.02655

------------------------------------------------------ 
Nodal displacements 
Node                    disp_x                            disp_y
 1,                      0.00000                               0.00000
 2,                      0.00000                               0.00000
 3,                      0.00000                               0.00000
 4,                      0.00000                               0.00000
 5,                     -0.00189                              -0.00201
 6,                     -0.00065                              -0.00168
 7,                      0.00063                              -0.00174
 8,                      0.00255                              -0.00235
 9,                     -0.00320                              -0.00512
 10,                     -0.00089                              -0.00497
 11,                      0.00154                              -0.00514
 12,                      0.00441                              -0.00557
 13,                     -0.00374                              -0.00954
 14,                     -0.00068                              -0.00947
 15,                      0.00239                              -0.00962
 16,                      0.00576                              -0.00994
 17,                     -0.00349                              -0.01483
 18,                     -0.00014                              -0.01481
 19,                      0.00314                              -0.01493
 20,                      0.00663                              -0.01515
 21,                     -0.00259                              -0.02058
 22,                      0.00063                              -0.02059
 23,                      0.00380                              -0.02068
 24,                      0.00706                              -0.02082
 25,                     -0.00128                              -0.02636
 26,                      0.00155                              -0.02637
 27,                      0.00436                              -0.02644
 28,                      0.00721                              -0.02655

--------------------------------------------------------------------------------- 
 Print stresses at the Stresses at points 
node          Stress_xx              stress_yy                  stress_xy                       stress_1                            stress_2
1            -133436.547                 -24637.454                    -42807.366                          -9814.307                            -148259.693
2            -71748.473                 -15266.197                    -39495.898                          5046.633                            -92061.304
3            66718.273                 4332.937                    -35987.621                          83150.089                            -12098.879
4            143496.947                 14560.814                    -35790.812                          152765.668                            5292.093
5            -122216.504                 -16701.028                    -42563.298                          -1672.239                            -137245.293
6            -62957.753                 -12651.352                    -40761.889                          10093.413                            -85702.518
7            61108.252                 -5790.172                    -33128.289                          74736.989                            -19418.909
8            125915.507                 -2978.667                    -27296.098                          131457.733                            -8520.894
9            -96429.627                 -10435.363                    -40128.869                          5381.445                            -112246.434
10            -46692.461                 -12449.882                    -39103.181                          13116.032                            -72258.375
11            48214.813                 -17062.423                    -27755.115                          58420.399                            -27268.008
12            93384.922                 -19660.444                    -17432.736                          96012.167                            -22287.689
13            -67044.788                 -11028.968                    -33046.962                          4282.226                            -82355.981
14            -31952.869                 -14059.102                    -32242.101                          10454.436                            -56466.407
15            33522.394                 -18069.322                    -23228.841                          42439.723                            -26986.651
16            63905.738                 -19049.409                    -15020.442                          66541.686                            -21685.357
17            -38637.554                 -8408.410                    -22968.365                          3972.401                            -51018.365
18            -18093.128                 -11897.801                    -23574.725                          8781.903                            -38772.832
19            19318.777                 -17181.704                    -18162.876                          26816.572                            -24679.499
20            36186.255                 -18976.215                    -12144.667                          38741.667                            -21531.626
21            -15571.089                 -5523.226                    -12125.781                          2578.178                            -23672.493
22            -7057.880                 -9434.959                    -13104.166                          4911.536                            -21404.374
23            7785.544                 -15996.730                    -10552.494                          11792.655                            -20003.841
24            14115.760                 -18646.770                    -7022.438                          15557.527                            -20088.537
25            -6093.853                 -4181.444                    -6470.248                          1402.874                            -11678.171
26            -2617.354                 -8329.260                    -7364.600                          2425.668                            -13372.282
27            3046.927                 -15557.132                    -5995.645                          4811.763                            -17321.968
28            5234.708                 -18637.188                    -3732.338                          5804.647                            -19207.126
